#===============================================================================
# Created using the Atomic Simulation Environment (ASE)

# Fri Dec 13 13:45:31 2024

#=======================================================
lattice_vector 11.5549733299999993 0.0000000000000000 0.0000000000000000 
lattice_vector 0.0000000000000000 10.0069004400000008 0.0000000000000000 
lattice_vector 0.0000000000000000 0.0000000000000000 65.0000000000000000 
atom 1.8848096400000001 4.2297163800000002 9.5444530299999997 H
atom 1.9947359099999999 4.3307707600000001 10.2838978900000004 H
atom 3.9793671100000001 0.3600073600000000 9.5717850000000002 H
atom 3.8360632200000002 0.2507726100000000 10.3041883599999995 H
atom 4.8977077600000003 4.9991600900000002 9.6386321800000019 H
    constrain_relaxation .true.
atom 5.1666854600000001 5.0872556600000003 10.3373546500000018 H
    constrain_relaxation .true.
atom 6.9684895300000003 0.9666947700000000 10.2758859900000008 H
atom 7.0183302100000002 0.9948072999999999 9.5232310899999995 H
atom 10.3875671300000008 3.6373170099999999 9.5731729500000000 H
atom 10.4453397100000007 3.5160155199999998 10.3153271899999996 H
atom 8.2722941399999996 5.6842754800000002 10.3235767299999992 H
atom 8.0460437000000002 5.7889332500000004 9.6121491399999996 H
atom 9.0853148299999997 8.6847178399999994 9.5318584600000005 H
atom 9.0763523999999993 8.6924053800000003 10.2862753199999997 H
atom 12.4849422499999996 11.3001865200000005 10.2961179299999994 H
atom 12.4741379899999991 11.2217491400000000 9.5455882200000008 H
atom -0.2307272700000000 6.5005086700000003 10.2586550100000000 H
atom -0.2056464000000000 6.5627449200000001 9.5070328699999997 H
atom 2.8646424100000001 7.3322275399999999 9.5279702099999994 H
atom 2.8850347900000002 7.3232559500000001 10.2821817200000005 H
atom 6.0313800500000001 7.9918399000000004 10.2566113600000008 H
atom 5.9403899400000002 8.0264108000000007 9.5085178500000005 H
atom 0.0000000000000000 0.0000000000000000 0.0000000000000000 Ag
    constrain_relaxation .true.
atom 2.8887399999999999 0.0000000000000000 0.0000000000000000 Ag
    constrain_relaxation .true.
atom 5.7774999999999999 0.0000000000000000 0.0000000000000000 Ag
    constrain_relaxation .true.
atom 8.6662300000000005 0.0000000000000000 0.0000000000000000 Ag
    constrain_relaxation .true.
atom 1.4443699999999999 2.5017299999999998 0.0000000000000000 Ag
    constrain_relaxation .true.
atom 4.3331099999999996 2.5017299999999998 0.0000000000000000 Ag
    constrain_relaxation .true.
atom 7.2218400000000003 2.5017299999999998 0.0000000000000000 Ag
    constrain_relaxation .true.
atom 10.1105999999999998 2.5017299999999998 0.0000000000000000 Ag
    constrain_relaxation .true.
atom 0.0000000000000000 5.0034500000000000 0.0000000000000000 Ag
    constrain_relaxation .true.
atom 2.8887399999999999 5.0034500000000000 0.0000000000000000 Ag
    constrain_relaxation .true.
atom 5.7774999999999999 5.0034500000000000 0.0000000000000000 Ag
    constrain_relaxation .true.
atom 8.6662300000000005 5.0034500000000000 0.0000000000000000 Ag
    constrain_relaxation .true.
atom 1.4443699999999999 7.5051600000000001 0.0000000000000000 Ag
    constrain_relaxation .true.
atom 4.3331099999999996 7.5051600000000001 0.0000000000000000 Ag
    constrain_relaxation .true.
atom 7.2218400000000003 7.5051600000000001 0.0000000000000000 Ag
    constrain_relaxation .true.
atom 10.1105999999999998 7.5051600000000001 0.0000000000000000 Ag
    constrain_relaxation .true.
atom 1.4443699999999999 0.8339090000000000 2.3586499999999999 Ag
    constrain_relaxation .true.
atom 4.3331099999999996 0.8339090000000000 2.3586499999999999 Ag
    constrain_relaxation .true.
atom 7.2218400000000003 0.8339090000000000 2.3586499999999999 Ag
    constrain_relaxation .true.
atom 10.1105999999999998 0.8339090000000000 2.3586499999999999 Ag
    constrain_relaxation .true.
atom 0.0000000000000000 3.3356300000000001 2.3586499999999999 Ag
    constrain_relaxation .true.
atom 2.8887399999999999 3.3356300000000001 2.3586499999999999 Ag
    constrain_relaxation .true.
atom 5.7774999999999999 3.3356300000000001 2.3586499999999999 Ag
    constrain_relaxation .true.
atom 8.6662300000000005 3.3356300000000001 2.3586499999999999 Ag
    constrain_relaxation .true.
atom 1.4443699999999999 5.8373499999999998 2.3586499999999999 Ag
    constrain_relaxation .true.
atom 4.3331099999999996 5.8373499999999998 2.3586499999999999 Ag
    constrain_relaxation .true.
atom 7.2218400000000003 5.8373499999999998 2.3586499999999999 Ag
    constrain_relaxation .true.
atom 10.1105999999999998 5.8373499999999998 2.3586499999999999 Ag
    constrain_relaxation .true.
atom 0.0000000000000000 8.3390900000000006 2.3586499999999999 Ag
    constrain_relaxation .true.
atom 2.8887399999999999 8.3390900000000006 2.3586499999999999 Ag
    constrain_relaxation .true.
atom 5.7774999999999999 8.3390900000000006 2.3586499999999999 Ag
    constrain_relaxation .true.
atom 8.6662300000000005 8.3390900000000006 2.3586499999999999 Ag
    constrain_relaxation .true.
atom 0.0005847700000000 1.6857400000000000 4.6409099999999999 Ag
    constrain_relaxation .true.
atom 2.8889499999999999 1.6849099999999999 4.6407999999999996 Ag
    constrain_relaxation .true.
atom 5.7770799999999998 1.6842500000000000 4.6409000000000002 Ag
    constrain_relaxation .true.
atom 8.6655899999999999 1.6847900000000000 4.6408800000000001 Ag
    constrain_relaxation .true.
atom 1.4443200000000000 4.1872900000000000 4.6406200000000002 Ag
    constrain_relaxation .true.
atom 4.3330200000000003 4.1858399999999998 4.6412899999999997 Ag
    constrain_relaxation .true.
atom 7.2205700000000004 4.1865600000000001 4.6413700000000002 Ag
    constrain_relaxation .true.
atom 10.1098999999999997 4.1865199999999998 4.6406200000000002 Ag
    constrain_relaxation .true.
atom 0.0002352200000000 6.6888500000000004 4.6402299999999999 Ag
    constrain_relaxation .true.
atom 2.8893300000000002 6.6880100000000002 4.6412899999999997 Ag
    constrain_relaxation .true.
atom 5.7768199999999998 6.6876899999999999 4.6413900000000003 Ag
    constrain_relaxation .true.
atom 8.6657499999999992 6.6884300000000003 4.6405599999999998 Ag
    constrain_relaxation .true.
atom 1.4454100000000001 9.1901700000000002 4.6409300000000000 Ag
    constrain_relaxation .true.
atom 4.3335600000000003 9.1898499999999999 4.6409399999999996 Ag
    constrain_relaxation .true.
atom 7.2216800000000001 9.1895299999999995 4.6409200000000004 Ag
    constrain_relaxation .true.
atom 10.1109000000000009 9.1905400000000004 4.6400600000000001 Ag
    constrain_relaxation .true.
atom 0.0008328500000000 0.0171889900000000 6.9318852599999996 Ag
atom 2.8892742600000001 0.0168116300000000 6.9317850099999996 Ag
atom 5.7772676599999997 0.0159493600000000 6.9325336899999996 Ag
atom 8.6669523399999999 0.0160839700000000 6.9319662500000003 Ag
atom 1.4443829399999999 2.5190005000000002 6.9319579999999998 Ag
atom 4.3330566599999996 2.5174250699999998 6.9319649600000002 Ag
atom 7.2217643100000002 2.5167097699999998 6.9324900600000001 Ag
atom 10.1100806799999994 2.5186254500000000 6.9315451200000000 Ag
atom -0.0004835200000000 5.0202494199999999 6.9312687899999998 Ag
atom 2.8889865399999999 5.0193979100000004 6.9321394200000004 Ag
atom 5.7770285499999998 5.0190426900000000 6.9332317200000002 Ag
atom 8.6653136600000007 5.0200632599999997 6.9316613199999999 Ag
atom 1.4443870700000001 7.5218505599999999 6.9318922299999999 Ag
atom 4.3333488100000004 7.5213913500000000 6.9326564700000004 Ag
atom 7.2218508699999999 7.5213640000000002 6.9314685100000002 Ag
atom 10.1109081700000001 7.5223537699999996 6.9315126899999999 Ag
atom 7.2283999999999997 4.1450800000000001 18.3297999999999988 Ag
    constrain_relaxation .true.
atom 5.7631100000000002 6.6837200000000001 18.3289000000000009 Ag
    constrain_relaxation .true.
atom 4.2977900000000000 4.1450800000000001 18.3297999999999988 Ag
    constrain_relaxation .true.
atom 5.7631100000000002 3.2027700000000001 20.5583999999999989 Ag
    constrain_relaxation .true.
atom 8.6586099999999995 3.3199399999999999 20.5696000000000012 Ag
    constrain_relaxation .true.
atom 7.3133900000000001 5.8871500000000001 20.5579000000000001 Ag
    constrain_relaxation .true.
atom 4.2128600000000000 5.8871500000000001 20.5579000000000001 Ag
    constrain_relaxation .true.
atom 5.7631100000000002 8.3350700000000000 20.5687999999999995 Ag
    constrain_relaxation .true.
atom 2.8676200000000001 3.3199299999999998 20.5696000000000012 Ag
    constrain_relaxation .true.
atom 7.2313099999999997 2.4493999999999998 22.8641000000000005 Ag
    constrain_relaxation .true.
atom 5.7631100000000002 4.9923400000000004 22.8641000000000005 Ag
    constrain_relaxation .true.
atom 4.2949500000000000 2.4493999999999998 22.8641000000000005 Ag
    constrain_relaxation .true.
atom 8.6994600000000002 4.9923400000000004 22.8641000000000005 Ag
    constrain_relaxation .true.
atom 10.1676000000000002 2.4493999999999998 22.8641000000000005 Ag
    constrain_relaxation .true.
atom 7.2313099999999997 7.5352699999999997 22.8641000000000005 Ag
    constrain_relaxation .true.
atom 4.2949500000000000 7.5352699999999997 22.8641000000000005 Ag
    constrain_relaxation .true.
atom 2.8267899999999999 4.9923400000000004 22.8641000000000005 Ag
    constrain_relaxation .true.
atom 5.7631100000000002 10.0782000000000007 22.8641000000000005 Ag
    constrain_relaxation .true.
atom 1.4334899999999999 2.6268500000000001 22.8044000000000011 Ag
    constrain_relaxation .true.
