&CONTROL
   calculation  = 'relax',
   prefix       = 'ag_h2_2p67A_6k',
   pseudo_dir   = './',
   outdir       = './'
/
&SYSTEM
   ibrav=0, nat=29, ntyp=2, ecutwfc=40.0, ecutrho=200.0,
   occupations='smearing', smearing='methfessel-paxton', degauss=0.02,
   vdw_corr = 'dft-d3'
/
&ELECTRONS
   conv_thr    = 1.0d-8,
   mixing_beta = 0.1,
/
&IONS
   ion_dynamics = 'bfgs'
/
CELL_PARAMETERS {angstrom}
   8.850   0.000   0.000
  -4.425   7.665   0.000
   0.000   0.000  25.000
ATOMIC_SPECIES
   Ag  107.868  Ag.pbe-n-rrkjus_psl.1.0.0.UPF
   H    1.008  H.pbe-kjpaw.UPF
ATOMIC_POSITIONS {crystal}
Ag   0.2222220000   0.1111110000   0.2000000000   0 0 0
Ag   0.5555560000   0.1111110000   0.2000000000   0 0 0
Ag   0.8888890000   0.1111110000   0.2000000000   0 0 0
Ag   0.2222220000   0.4444440000   0.2000000000   0 0 0
Ag   0.5555560000   0.4444440000   0.2000000000   0 0 0
Ag   0.8888890000   0.4444440000   0.2000000000   0 0 0
Ag   0.2222220000   0.7777780000   0.2000000000   0 0 0
Ag   0.5555560000   0.7777780000   0.2000000000   0 0 0
Ag   0.8888890000   0.7777780000   0.2000000000   0 0 0
Ag   0.1111110000   0.2222220000   0.2500000000   0 0 0
Ag   0.4444440000   0.2222220000   0.2500000000   0 0 0
Ag   0.7777780000   0.2222220000   0.2500000000   0 0 0
Ag   0.1111110000   0.5555560000   0.2500000000   0 0 0
Ag   0.4444440000   0.5555560000   0.2500000000   0 0 0
Ag   0.7777780000   0.5555560000   0.2500000000   0 0 0
Ag   0.1111110000   0.8888890000   0.2500000000   0 0 0
Ag   0.4444440000   0.8888890000   0.2500000000   0 0 0
Ag   0.7777780000   0.8888890000   0.2500000000   0 0 0
Ag   0.0000029568   0.0000059136   0.3440280909   0 0 0
Ag   0.3333370134   0.0000060547   0.3440276273   0 0 0
Ag   0.6666690413   0.0000060547   0.3440276273   0 0 0
Ag   0.0000030712   0.3333395735   0.3440283118   0 0 0
Ag   0.3333365023   0.3333395735   0.3440283118   0 0 0
Ag   0.6666702255   0.3333394510   0.3440279663   0 0 0
Ag   0.0000043613   0.6666747760   0.3440281131   0 0 0
Ag   0.3333371438   0.6666752877   0.3440280446   0 0 0
Ag   0.6666704147   0.6666747760   0.3440281131   0 0 0
H      0.500000   0.500000   .4356946666   1 1 0
H      0.500000   0.500000   .4656946666   1 1 0
K_POINTS {automatic}
   2 2 1 0 0 0
