#===============================================================================
# Created using the Atomic Simulation Environment (ASE)

# Fri Dec 13 13:34:10 2024

#=======================================================
lattice_vector 11.5549733299999993 0.0000000000000000 0.0000000000000000 
lattice_vector 0.0000000000000000 10.0069004400000008 0.0000000000000000 
lattice_vector 0.0000000000000000 0.0000000000000000 65.0000000000000000 
atom 1.8673373499999999 3.9964560900000001 9.5318622600000005 H
atom 1.9164755200000001 4.0217401500000003 10.2842480900000002 H
atom 3.9540715700000000 -0.0371868300000000 9.5990845399999998 H
atom 3.7788333199999999 -0.0862145000000000 10.3308065500000001 H
atom 4.9164161499999999 4.5966779999999998 9.6579432600000015 H
    constrain_relaxation .true.
atom 5.0902793300000004 4.7236587400000003 10.3807419000000021 H
    constrain_relaxation .true.
atom 6.8846917899999998 0.6564600900000001 10.2877506299999997 H
atom 6.9622993299999996 0.7461987500000000 9.5423664299999995 H
atom 10.3536602500000008 3.3685001600000000 9.6405031000000001 H
atom 10.3826506599999995 3.1730047799999999 10.3679114800000001 H
atom 8.2367735399999997 5.3650978100000000 10.3611477000000001 H
atom 7.9517852700000002 5.4192365100000002 9.6656229499999995 H
atom 8.9380796999999994 8.3850353200000001 9.5193139799999997 H
atom 8.9860050400000002 8.3411470100000003 10.2710850600000008 H
atom 12.4803962300000002 11.0332782599999994 10.3012246800000007 H
atom 12.5185956600000008 11.0139470999999993 9.5478361700000001 H
atom -0.2719073900000000 6.1851462200000000 10.2861761099999995 H
atom -0.2965597500000000 6.3121756299999996 9.5429761600000003 H
atom 2.8530204100000001 6.9616844400000000 9.5135524399999998 H
atom 2.8570144100000001 6.9724896000000003 10.2680585400000002 H
atom 5.9725552500000001 7.6436914600000003 10.2989929000000000 H
atom 5.8888812100000001 7.6490258500000001 9.5494318499999995 H
atom 0.0000000000000000 0.0000000000000000 0.0000000000000000 Ag
    constrain_relaxation .true.
atom 2.8887399999999999 0.0000000000000000 0.0000000000000000 Ag
    constrain_relaxation .true.
atom 5.7774999999999999 0.0000000000000000 0.0000000000000000 Ag
    constrain_relaxation .true.
atom 8.6662300000000005 0.0000000000000000 0.0000000000000000 Ag
    constrain_relaxation .true.
atom 1.4443699999999999 2.5017299999999998 0.0000000000000000 Ag
    constrain_relaxation .true.
atom 4.3331099999999996 2.5017299999999998 0.0000000000000000 Ag
    constrain_relaxation .true.
atom 7.2218400000000003 2.5017299999999998 0.0000000000000000 Ag
    constrain_relaxation .true.
atom 10.1105999999999998 2.5017299999999998 0.0000000000000000 Ag
    constrain_relaxation .true.
atom 0.0000000000000000 5.0034500000000000 0.0000000000000000 Ag
    constrain_relaxation .true.
atom 2.8887399999999999 5.0034500000000000 0.0000000000000000 Ag
    constrain_relaxation .true.
atom 5.7774999999999999 5.0034500000000000 0.0000000000000000 Ag
    constrain_relaxation .true.
atom 8.6662300000000005 5.0034500000000000 0.0000000000000000 Ag
    constrain_relaxation .true.
atom 1.4443699999999999 7.5051600000000001 0.0000000000000000 Ag
    constrain_relaxation .true.
atom 4.3331099999999996 7.5051600000000001 0.0000000000000000 Ag
    constrain_relaxation .true.
atom 7.2218400000000003 7.5051600000000001 0.0000000000000000 Ag
    constrain_relaxation .true.
atom 10.1105999999999998 7.5051600000000001 0.0000000000000000 Ag
    constrain_relaxation .true.
atom 1.4443699999999999 0.8339090000000000 2.3586499999999999 Ag
    constrain_relaxation .true.
atom 4.3331099999999996 0.8339090000000000 2.3586499999999999 Ag
    constrain_relaxation .true.
atom 7.2218400000000003 0.8339090000000000 2.3586499999999999 Ag
    constrain_relaxation .true.
atom 10.1105999999999998 0.8339090000000000 2.3586499999999999 Ag
    constrain_relaxation .true.
atom 0.0000000000000000 3.3356300000000001 2.3586499999999999 Ag
    constrain_relaxation .true.
atom 2.8887399999999999 3.3356300000000001 2.3586499999999999 Ag
    constrain_relaxation .true.
atom 5.7774999999999999 3.3356300000000001 2.3586499999999999 Ag
    constrain_relaxation .true.
atom 8.6662300000000005 3.3356300000000001 2.3586499999999999 Ag
    constrain_relaxation .true.
atom 1.4443699999999999 5.8373499999999998 2.3586499999999999 Ag
    constrain_relaxation .true.
atom 4.3331099999999996 5.8373499999999998 2.3586499999999999 Ag
    constrain_relaxation .true.
atom 7.2218400000000003 5.8373499999999998 2.3586499999999999 Ag
    constrain_relaxation .true.
atom 10.1105999999999998 5.8373499999999998 2.3586499999999999 Ag
    constrain_relaxation .true.
atom 0.0000000000000000 8.3390900000000006 2.3586499999999999 Ag
    constrain_relaxation .true.
atom 2.8887399999999999 8.3390900000000006 2.3586499999999999 Ag
    constrain_relaxation .true.
atom 5.7774999999999999 8.3390900000000006 2.3586499999999999 Ag
    constrain_relaxation .true.
atom 8.6662300000000005 8.3390900000000006 2.3586499999999999 Ag
    constrain_relaxation .true.
atom 0.0005847700000000 1.6857400000000000 4.6409099999999999 Ag
    constrain_relaxation .true.
atom 2.8889499999999999 1.6849099999999999 4.6407999999999996 Ag
    constrain_relaxation .true.
atom 5.7770799999999998 1.6842500000000000 4.6409000000000002 Ag
    constrain_relaxation .true.
atom 8.6655899999999999 1.6847900000000000 4.6408800000000001 Ag
    constrain_relaxation .true.
atom 1.4443200000000000 4.1872900000000000 4.6406200000000002 Ag
    constrain_relaxation .true.
atom 4.3330200000000003 4.1858399999999998 4.6412899999999997 Ag
    constrain_relaxation .true.
atom 7.2205700000000004 4.1865600000000001 4.6413700000000002 Ag
    constrain_relaxation .true.
atom 10.1098999999999997 4.1865199999999998 4.6406200000000002 Ag
    constrain_relaxation .true.
atom 0.0002352200000000 6.6888500000000004 4.6402299999999999 Ag
    constrain_relaxation .true.
atom 2.8893300000000002 6.6880100000000002 4.6412899999999997 Ag
    constrain_relaxation .true.
atom 5.7768199999999998 6.6876899999999999 4.6413900000000003 Ag
    constrain_relaxation .true.
atom 8.6657499999999992 6.6884300000000003 4.6405599999999998 Ag
    constrain_relaxation .true.
atom 1.4454100000000001 9.1901700000000002 4.6409300000000000 Ag
    constrain_relaxation .true.
atom 4.3335600000000003 9.1898499999999999 4.6409399999999996 Ag
    constrain_relaxation .true.
atom 7.2216800000000001 9.1895299999999995 4.6409200000000004 Ag
    constrain_relaxation .true.
atom 10.1109000000000009 9.1905400000000004 4.6400600000000001 Ag
    constrain_relaxation .true.
atom 0.0007163600000000 0.0166324600000000 6.9319004399999997 Ag
atom 2.8893530200000002 0.0170727500000000 6.9322306200000003 Ag
atom 5.7769300299999999 0.0161311100000000 6.9332929900000000 Ag
atom 8.6663450500000003 0.0155755200000000 6.9323183500000001 Ag
atom 1.4445419399999999 2.5190055899999999 6.9323735500000003 Ag
atom 4.3330801299999999 2.5183352499999998 6.9328188099999997 Ag
atom 7.2216618600000002 2.5169328700000002 6.9328931899999997 Ag
atom 10.1099290400000008 2.5180959600000001 6.9320672300000004 Ag
atom -0.0007241000000000 5.0199505699999998 6.9312449300000001 Ag
atom 2.8891416300000001 5.0195296100000002 6.9331211499999998 Ag
atom 5.7771207999999996 5.0191036300000000 6.9352616899999999 Ag
atom 8.6649650099999995 5.0196730000000001 6.9327371299999996 Ag
atom 1.4445596800000000 7.5213295499999999 6.9317691899999998 Ag
atom 4.3338645700000002 7.5212124200000003 6.9338087000000002 Ag
atom 7.2211752100000002 7.5210321100000002 6.9328032000000004 Ag
atom 10.1108672700000000 7.5219154899999996 6.9318166000000003 Ag
atom 7.2283999999999997 4.1450800000000001 14.8298000000000005 Ag
    constrain_relaxation .true.
atom 5.7631100000000002 6.6837200000000001 14.8289000000000009 Ag
    constrain_relaxation .true.
atom 4.2977900000000000 4.1450800000000001 14.8298000000000005 Ag
    constrain_relaxation .true.
atom 5.7631100000000002 3.2027700000000001 17.0583999999999989 Ag
    constrain_relaxation .true.
atom 8.6586099999999995 3.3199399999999999 17.0696000000000012 Ag
    constrain_relaxation .true.
atom 7.3133900000000001 5.8871500000000001 17.0579000000000001 Ag
    constrain_relaxation .true.
atom 4.2128600000000000 5.8871500000000001 17.0579000000000001 Ag
    constrain_relaxation .true.
atom 5.7631100000000002 8.3350700000000000 17.0687999999999995 Ag
    constrain_relaxation .true.
atom 2.8676200000000001 3.3199299999999998 17.0696000000000012 Ag
    constrain_relaxation .true.
atom 7.2313099999999997 2.4493999999999998 19.3641000000000005 Ag
    constrain_relaxation .true.
atom 5.7631100000000002 4.9923400000000004 19.3641000000000005 Ag
    constrain_relaxation .true.
atom 4.2949500000000000 2.4493999999999998 19.3641000000000005 Ag
    constrain_relaxation .true.
atom 8.6994600000000002 4.9923400000000004 19.3641000000000005 Ag
    constrain_relaxation .true.
atom 10.1676000000000002 2.4493999999999998 19.3641000000000005 Ag
    constrain_relaxation .true.
atom 7.2313099999999997 7.5352699999999997 19.3641000000000005 Ag
    constrain_relaxation .true.
atom 4.2949500000000000 7.5352699999999997 19.3641000000000005 Ag
    constrain_relaxation .true.
atom 2.8267899999999999 4.9923400000000004 19.3641000000000005 Ag
    constrain_relaxation .true.
atom 5.7631100000000002 10.0782000000000007 19.3641000000000005 Ag
    constrain_relaxation .true.
atom 1.4334899999999999 2.6268500000000001 19.3044000000000011 Ag
    constrain_relaxation .true.
