&CONTROL
   calculation  = 'relax',
   prefix       = 'ag111_3x3_6k',
   pseudo_dir   = './',
   outdir       = './'
/
&SYSTEM
   ibrav     = 0,
   nat       = 27,
   ntyp      = 1,
   ecutwfc   = 40.0,
   ecutrho   = 200.0,
   occupations = 'smearing',
   smearing    = 'methfessel-paxton',
   degauss     = 0.02,
   vdw_corr    = 'dft-d3'
/
&ELECTRONS
   conv_thr    = 1.0d-8,
   mixing_mode = 'local-TF',
   mixing_beta = 0.3,
   mixing_ndim = 10,
   diagonalization = 'cg'
/
&IONS
   ion_dynamics = 'bfgs'
/
CELL_PARAMETERS {angstrom}
   8.850   0.000   0.000
  -4.425   7.665   0.000
   0.000   0.000  25.000
ATOMIC_SPECIES
   Ag  107.868  Ag.pbe-n-rrkjus_psl.1.0.0.UPF
   
ATOMIC_POSITIONS {crystal}
Ag   0.000000   0.000000   0.450   1 1 1
Ag   0.333333   0.000000   0.450   1 1 1
Ag   0.666667   0.000000   0.450   1 1 1
Ag   0.000000   0.333333   0.450   1 1 1
Ag   0.333333   0.333333   0.450   1 1 1
Ag   0.666667   0.333333   0.450   1 1 1
Ag   0.000000   0.666667   0.450   1 1 1
Ag   0.333333   0.666667   0.450   1 1 1
Ag   0.666667   0.666667   0.450   1 1 1
Ag   0.111111   0.222222   0.500   0 0 0
Ag   0.444444   0.222222   0.500   0 0 0
Ag   0.777778   0.222222   0.500   0 0 0
Ag   0.111111   0.555556   0.500   0 0 0
Ag   0.444444   0.555556   0.500   0 0 0
Ag   0.777778   0.555556   0.500   0 0 0
Ag   0.111111   0.888889   0.500   0 0 0
Ag   0.444444   0.888889   0.500   0 0 0
Ag   0.777778   0.888889   0.500   0 0 0
Ag   0.222222   0.111111   0.550   0 0 0
Ag   0.555556   0.111111   0.550   0 0 0
Ag   0.888889   0.111111   0.550   0 0 0
Ag   0.222222   0.444444   0.550   0 0 0
Ag   0.555556   0.444444   0.550   0 0 0
Ag   0.888889   0.444444   0.550   0 0 0
Ag   0.222222   0.777778   0.550   0 0 0
Ag   0.555556   0.777778   0.550   0 0 0
Ag   0.888889   0.777778   0.550   0 0 0

K_POINTS {automatic}
   6 6 1 0 0 0