# 
# This is the geometry file that corresponds to the current relaxation step.
# If you do not want this file to be written, set the "write_restart_geometry" flag to .false.
#  aims_uuid : F987694D-B406-4847-AA81-2179935C9ED5                                
# 
  set_vacuum_level        44.182050
lattice_vector     11.55497333      0.00000000      0.00000000
lattice_vector      0.00000000     10.00690044      0.00000000
lattice_vector      0.00000000      0.00000000     65.00000000
atom       4.91818119      4.59998780      9.66116228 H
atom       5.08712822      4.71946042     10.38712866 H
atom       0.00000000      0.00000000      0.00000000 Ag
  constrain_relaxation .true.
atom       2.88874000      0.00000000      0.00000000 Ag
  constrain_relaxation .true.
atom       5.77750000      0.00000000      0.00000000 Ag
  constrain_relaxation .true.
atom       8.66623000      0.00000000      0.00000000 Ag
  constrain_relaxation .true.
atom       1.44437000      2.50173000      0.00000000 Ag
  constrain_relaxation .true.
atom       4.33311000      2.50173000      0.00000000 Ag
  constrain_relaxation .true.
atom       7.22184000      2.50173000      0.00000000 Ag
  constrain_relaxation .true.
atom      10.11060000      2.50173000      0.00000000 Ag
  constrain_relaxation .true.
atom       0.00000000      5.00345000      0.00000000 Ag
  constrain_relaxation .true.
atom       2.88874000      5.00345000      0.00000000 Ag
  constrain_relaxation .true.
atom       5.77750000      5.00345000      0.00000000 Ag
  constrain_relaxation .true.
atom       8.66623000      5.00345000      0.00000000 Ag
  constrain_relaxation .true.
atom       1.44437000      7.50516000      0.00000000 Ag
  constrain_relaxation .true.
atom       4.33311000      7.50516000      0.00000000 Ag
  constrain_relaxation .true.
atom       7.22184000      7.50516000      0.00000000 Ag
  constrain_relaxation .true.
atom      10.11060000      7.50516000      0.00000000 Ag
  constrain_relaxation .true.
atom       1.44437000      0.83390900      2.35865000 Ag
  constrain_relaxation .true.
atom       4.33311000      0.83390900      2.35865000 Ag
  constrain_relaxation .true.
atom       7.22184000      0.83390900      2.35865000 Ag
  constrain_relaxation .true.
atom      10.11060000      0.83390900      2.35865000 Ag
  constrain_relaxation .true.
atom       0.00000000      3.33563000      2.35865000 Ag
  constrain_relaxation .true.
atom       2.88874000      3.33563000      2.35865000 Ag
  constrain_relaxation .true.
atom       5.77750000      3.33563000      2.35865000 Ag
  constrain_relaxation .true.
atom       8.66623000      3.33563000      2.35865000 Ag
  constrain_relaxation .true.
atom       1.44437000      5.83735000      2.35865000 Ag
  constrain_relaxation .true.
atom       4.33311000      5.83735000      2.35865000 Ag
  constrain_relaxation .true.
atom       7.22184000      5.83735000      2.35865000 Ag
  constrain_relaxation .true.
atom      10.11060000      5.83735000      2.35865000 Ag
  constrain_relaxation .true.
atom       0.00000000      8.33909000      2.35865000 Ag
  constrain_relaxation .true.
atom       2.88874000      8.33909000      2.35865000 Ag
  constrain_relaxation .true.
atom       5.77750000      8.33909000      2.35865000 Ag
  constrain_relaxation .true.
atom       8.66623000      8.33909000      2.35865000 Ag
  constrain_relaxation .true.
atom       0.00058477      1.68574000      4.64091000 Ag
  constrain_relaxation .true.
atom       2.88895000      1.68491000      4.64080000 Ag
  constrain_relaxation .true.
atom       5.77708000      1.68425000      4.64090000 Ag
  constrain_relaxation .true.
atom       8.66559000      1.68479000      4.64088000 Ag
  constrain_relaxation .true.
atom       1.44432000      4.18729000      4.64062000 Ag
  constrain_relaxation .true.
atom       4.33302000      4.18584000      4.64129000 Ag
  constrain_relaxation .true.
atom       7.22057000      4.18656000      4.64137000 Ag
  constrain_relaxation .true.
atom      10.10990000      4.18652000      4.64062000 Ag
  constrain_relaxation .true.
atom       0.00023522      6.68885000      4.64023000 Ag
  constrain_relaxation .true.
atom       2.88933000      6.68801000      4.64129000 Ag
  constrain_relaxation .true.
atom       5.77682000      6.68769000      4.64139000 Ag
  constrain_relaxation .true.
atom       8.66575000      6.68843000      4.64056000 Ag
  constrain_relaxation .true.
atom       1.44541000      9.19017000      4.64093000 Ag
  constrain_relaxation .true.
atom       4.33356000      9.18985000      4.64094000 Ag
  constrain_relaxation .true.
atom       7.22168000      9.18953000      4.64092000 Ag
  constrain_relaxation .true.
atom      10.11090000      9.19054000      4.64006000 Ag
  constrain_relaxation .true.
atom       0.00026921      0.01614907      6.93470065 Ag
atom       2.88913041      0.01670690      6.93606735 Ag
atom       5.77746464      0.01621585      6.93574238 Ag
atom       8.66618425      0.01625673      6.93537786 Ag
atom       1.44500343      2.51842030      6.93581353 Ag
atom       4.33294515      2.51774664      6.93487093 Ag
atom       7.22175868      2.51784019      6.93475014 Ag
atom      10.11059100      2.51821770      6.93531522 Ag
atom       0.00016031      5.01974698      6.93544671 Ag
atom       2.88899988      5.01927678      6.93509599 Ag
atom       5.77713090      5.01968366      6.93427385 Ag
atom       8.66610173      5.01953768      6.93501721 Ag
atom       1.44419892      7.52117553      6.93558131 Ag
atom       4.33317865      7.52174024      6.93476742 Ag
atom       7.22149703      7.52126031      6.93501074 Ag
atom      10.11083275      7.52138163      6.93474586 Ag
atom       7.22840000      4.14508000     14.82980000 Ag
  constrain_relaxation .true.
atom       5.76311000      6.68372000     14.82890000 Ag
  constrain_relaxation .true.
atom       4.29779000      4.14508000     14.82980000 Ag
  constrain_relaxation .true.
atom       5.76311000      3.20277000     17.05840000 Ag
  constrain_relaxation .true.
atom       8.65861000      3.31994000     17.06960000 Ag
  constrain_relaxation .true.
atom       7.31339000      5.88715000     17.05790000 Ag
  constrain_relaxation .true.
atom       4.21286000      5.88715000     17.05790000 Ag
  constrain_relaxation .true.
atom       5.76311000      8.33507000     17.06880000 Ag
  constrain_relaxation .true.
atom       2.86762000      3.31993000     17.06960000 Ag
  constrain_relaxation .true.
atom       7.23131000      2.44940000     19.36410000 Ag
  constrain_relaxation .true.
atom       5.76311000      4.99234000     19.36410000 Ag
  constrain_relaxation .true.
atom       4.29495000      2.44940000     19.36410000 Ag
  constrain_relaxation .true.
atom       8.69946000      4.99234000     19.36410000 Ag
  constrain_relaxation .true.
atom      10.16760000      2.44940000     19.36410000 Ag
  constrain_relaxation .true.
atom       7.23131000      7.53527000     19.36410000 Ag
  constrain_relaxation .true.
atom       4.29495000      7.53527000     19.36410000 Ag
  constrain_relaxation .true.
atom       2.82679000      4.99234000     19.36410000 Ag
  constrain_relaxation .true.
atom       5.76311000     10.07820000     19.36410000 Ag
  constrain_relaxation .true.
atom       1.43349000      2.62685000     19.30440000 Ag
  constrain_relaxation .true.
# 
# What follows is the current estimated Hessian matrix constructed by the BFGS algorithm.
# This is NOT the true Hessian matrix of the system.
# If you do not want this information here, switch it off using the "hessian_to_restart_geometry" keyword.
# 
