#===============================================================================
# Created using the Atomic Simulation Environment (ASE)

# Fri Dec 13 13:37:23 2024

#=======================================================
lattice_vector 11.5549733299999993 0.0000000000000000 0.0000000000000000 
lattice_vector 0.0000000000000000 10.0069004400000008 0.0000000000000000 
lattice_vector 0.0000000000000000 0.0000000000000000 65.0000000000000000 
atom 1.9214772200000001 4.1705026800000002 9.5486452699999997 H
atom 2.0141512600000002 4.2695891100000001 10.2906761000000007 H
atom 3.9931162300000000 0.2655970300000000 9.5793009300000005 H
atom 3.8510401000000001 0.1703101700000000 10.3138275900000007 H
atom 4.9495320300000003 4.8933660100000003 9.6692536200000010 H
    constrain_relaxation .true.
atom 5.1884640099999997 4.9971684700000001 10.3766684300000023 H
    constrain_relaxation .true.
atom 6.9701256300000001 0.8935019800000000 10.2772257000000007 H
atom 7.0228196799999996 0.9397036900000000 9.5256422199999999 H
atom 10.4114126400000000 3.5849587500000002 9.5877054899999994 H
atom 10.4691667200000005 3.4518447600000002 10.3277486199999995 H
atom 8.3026183699999994 5.6177826800000004 10.3448970800000009 H
atom 8.0597335200000000 5.7160094299999997 9.6381807700000000 H
atom 9.0813300600000009 8.6255535699999992 9.5332416799999997 H
atom 9.0935249500000008 8.6199910099999997 10.2875996799999996 H
atom 12.5075964800000001 11.2407593899999991 10.2959823700000008 H
atom 12.5093512800000006 11.1735305100000009 9.5443184300000006 H
atom -0.2006616200000000 6.4409229200000002 10.2635784500000007 H
atom -0.1900994800000000 6.5142362800000004 9.5126385500000001 H
atom 2.8934457199999999 7.2341920300000000 9.5297717300000002 H
atom 2.9245705499999999 7.2384519300000001 10.2836344900000007 H
atom 6.0610855499999996 7.9161027500000003 10.2767811699999996 H
atom 5.9553840500000002 7.9361475700000002 9.5302185300000009 H
atom 0.0000000000000000 0.0000000000000000 0.0000000000000000 Ag
    constrain_relaxation .true.
atom 2.8887399999999999 0.0000000000000000 0.0000000000000000 Ag
    constrain_relaxation .true.
atom 5.7774999999999999 0.0000000000000000 0.0000000000000000 Ag
    constrain_relaxation .true.
atom 8.6662300000000005 0.0000000000000000 0.0000000000000000 Ag
    constrain_relaxation .true.
atom 1.4443699999999999 2.5017299999999998 0.0000000000000000 Ag
    constrain_relaxation .true.
atom 4.3331099999999996 2.5017299999999998 0.0000000000000000 Ag
    constrain_relaxation .true.
atom 7.2218400000000003 2.5017299999999998 0.0000000000000000 Ag
    constrain_relaxation .true.
atom 10.1105999999999998 2.5017299999999998 0.0000000000000000 Ag
    constrain_relaxation .true.
atom 0.0000000000000000 5.0034500000000000 0.0000000000000000 Ag
    constrain_relaxation .true.
atom 2.8887399999999999 5.0034500000000000 0.0000000000000000 Ag
    constrain_relaxation .true.
atom 5.7774999999999999 5.0034500000000000 0.0000000000000000 Ag
    constrain_relaxation .true.
atom 8.6662300000000005 5.0034500000000000 0.0000000000000000 Ag
    constrain_relaxation .true.
atom 1.4443699999999999 7.5051600000000001 0.0000000000000000 Ag
    constrain_relaxation .true.
atom 4.3331099999999996 7.5051600000000001 0.0000000000000000 Ag
    constrain_relaxation .true.
atom 7.2218400000000003 7.5051600000000001 0.0000000000000000 Ag
    constrain_relaxation .true.
atom 10.1105999999999998 7.5051600000000001 0.0000000000000000 Ag
    constrain_relaxation .true.
atom 1.4443699999999999 0.8339090000000000 2.3586499999999999 Ag
    constrain_relaxation .true.
atom 4.3331099999999996 0.8339090000000000 2.3586499999999999 Ag
    constrain_relaxation .true.
atom 7.2218400000000003 0.8339090000000000 2.3586499999999999 Ag
    constrain_relaxation .true.
atom 10.1105999999999998 0.8339090000000000 2.3586499999999999 Ag
    constrain_relaxation .true.
atom 0.0000000000000000 3.3356300000000001 2.3586499999999999 Ag
    constrain_relaxation .true.
atom 2.8887399999999999 3.3356300000000001 2.3586499999999999 Ag
    constrain_relaxation .true.
atom 5.7774999999999999 3.3356300000000001 2.3586499999999999 Ag
    constrain_relaxation .true.
atom 8.6662300000000005 3.3356300000000001 2.3586499999999999 Ag
    constrain_relaxation .true.
atom 1.4443699999999999 5.8373499999999998 2.3586499999999999 Ag
    constrain_relaxation .true.
atom 4.3331099999999996 5.8373499999999998 2.3586499999999999 Ag
    constrain_relaxation .true.
atom 7.2218400000000003 5.8373499999999998 2.3586499999999999 Ag
    constrain_relaxation .true.
atom 10.1105999999999998 5.8373499999999998 2.3586499999999999 Ag
    constrain_relaxation .true.
atom 0.0000000000000000 8.3390900000000006 2.3586499999999999 Ag
    constrain_relaxation .true.
atom 2.8887399999999999 8.3390900000000006 2.3586499999999999 Ag
    constrain_relaxation .true.
atom 5.7774999999999999 8.3390900000000006 2.3586499999999999 Ag
    constrain_relaxation .true.
atom 8.6662300000000005 8.3390900000000006 2.3586499999999999 Ag
    constrain_relaxation .true.
atom 0.0005847700000000 1.6857400000000000 4.6409099999999999 Ag
    constrain_relaxation .true.
atom 2.8889499999999999 1.6849099999999999 4.6407999999999996 Ag
    constrain_relaxation .true.
atom 5.7770799999999998 1.6842500000000000 4.6409000000000002 Ag
    constrain_relaxation .true.
atom 8.6655899999999999 1.6847900000000000 4.6408800000000001 Ag
    constrain_relaxation .true.
atom 1.4443200000000000 4.1872900000000000 4.6406200000000002 Ag
    constrain_relaxation .true.
atom 4.3330200000000003 4.1858399999999998 4.6412899999999997 Ag
    constrain_relaxation .true.
atom 7.2205700000000004 4.1865600000000001 4.6413700000000002 Ag
    constrain_relaxation .true.
atom 10.1098999999999997 4.1865199999999998 4.6406200000000002 Ag
    constrain_relaxation .true.
atom 0.0002352200000000 6.6888500000000004 4.6402299999999999 Ag
    constrain_relaxation .true.
atom 2.8893300000000002 6.6880100000000002 4.6412899999999997 Ag
    constrain_relaxation .true.
atom 5.7768199999999998 6.6876899999999999 4.6413900000000003 Ag
    constrain_relaxation .true.
atom 8.6657499999999992 6.6884300000000003 4.6405599999999998 Ag
    constrain_relaxation .true.
atom 1.4454100000000001 9.1901700000000002 4.6409300000000000 Ag
    constrain_relaxation .true.
atom 4.3335600000000003 9.1898499999999999 4.6409399999999996 Ag
    constrain_relaxation .true.
atom 7.2216800000000001 9.1895299999999995 4.6409200000000004 Ag
    constrain_relaxation .true.
atom 10.1109000000000009 9.1905400000000004 4.6400600000000001 Ag
    constrain_relaxation .true.
atom 0.0008897400000000 0.0170316400000000 6.9319601300000002 Ag
atom 2.8893512800000001 0.0168772200000000 6.9320198900000003 Ag
atom 5.7772052100000000 0.0159728300000000 6.9329791199999997 Ag
atom 8.6668313200000000 0.0159110000000000 6.9322759600000001 Ag
atom 1.4445245300000000 2.5190801100000000 6.9322876700000000 Ag
atom 4.3331498699999997 2.5177417700000002 6.9325197200000002 Ag
atom 7.2217286200000004 2.5167738800000001 6.9328998999999998 Ag
atom 10.1100251199999995 2.5186014399999999 6.9317275900000004 Ag
atom -0.0004833700000000 5.0201218399999998 6.9314395400000004 Ag
atom 2.8891419100000002 5.0193695600000003 6.9326154600000001 Ag
atom 5.7769612800000001 5.0191497099999998 6.9343788399999999 Ag
atom 8.6651605200000006 5.0200827900000000 6.9322534500000002 Ag
atom 1.4445701799999999 7.5216894600000002 6.9320716400000002 Ag
atom 4.3336160399999999 7.5212017099999997 6.9332893300000000 Ag
atom 7.2216007400000004 7.5211796399999997 6.9320984799999996 Ag
atom 10.1107454200000006 7.5222314099999998 6.9317019599999998 Ag
atom 7.2283999999999997 4.1450800000000001 15.3298000000000005 Ag
    constrain_relaxation .true.
atom 5.7631100000000002 6.6837200000000001 15.3289000000000009 Ag
    constrain_relaxation .true.
atom 4.2977900000000000 4.1450800000000001 15.3298000000000005 Ag
    constrain_relaxation .true.
atom 5.7631100000000002 3.2027700000000001 17.5583999999999989 Ag
    constrain_relaxation .true.
atom 8.6586099999999995 3.3199399999999999 17.5696000000000012 Ag
    constrain_relaxation .true.
atom 7.3133900000000001 5.8871500000000001 17.5579000000000001 Ag
    constrain_relaxation .true.
atom 4.2128600000000000 5.8871500000000001 17.5579000000000001 Ag
    constrain_relaxation .true.
atom 5.7631100000000002 8.3350700000000000 17.5687999999999995 Ag
    constrain_relaxation .true.
atom 2.8676200000000001 3.3199299999999998 17.5696000000000012 Ag
    constrain_relaxation .true.
atom 7.2313099999999997 2.4493999999999998 19.8641000000000005 Ag
    constrain_relaxation .true.
atom 5.7631100000000002 4.9923400000000004 19.8641000000000005 Ag
    constrain_relaxation .true.
atom 4.2949500000000000 2.4493999999999998 19.8641000000000005 Ag
    constrain_relaxation .true.
atom 8.6994600000000002 4.9923400000000004 19.8641000000000005 Ag
    constrain_relaxation .true.
atom 10.1676000000000002 2.4493999999999998 19.8641000000000005 Ag
    constrain_relaxation .true.
atom 7.2313099999999997 7.5352699999999997 19.8641000000000005 Ag
    constrain_relaxation .true.
atom 4.2949500000000000 7.5352699999999997 19.8641000000000005 Ag
    constrain_relaxation .true.
atom 2.8267899999999999 4.9923400000000004 19.8641000000000005 Ag
    constrain_relaxation .true.
atom 5.7631100000000002 10.0782000000000007 19.8641000000000005 Ag
    constrain_relaxation .true.
atom 1.4334899999999999 2.6268500000000001 19.8044000000000011 Ag
    constrain_relaxation .true.
