&CONTROL
   calculation  = 'scf',
   prefix       = 'total',
   pseudo_dir   = './',
   outdir       = './'
/
&SYSTEM
   ibrav     = 0,
   nat       = 29,
   ntyp      = 2,
   ecutwfc   = 40.0,
   ecutrho   = 200.0,
   occupations = 'smearing',
   smearing    = 'methfessel-paxton',
   degauss     = 0.02,
   vdw_corr    = 'dft-d3'
/
&ELECTRONS
   conv_thr    = 1.0d-8,
   mixing_beta = 0.1,
/
&IONS
   ion_dynamics = 'bfgs'
/
CELL_PARAMETERS {angstrom}
   8.850   0.000   0.000
  -4.425   7.665   0.000
   0.000   0.000  25.000
ATOMIC_SPECIES
   Ag  107.868  Ag.pbe-n-rrkjus_psl.1.0.0.UPF
   H    1.008  H.pbe-kjpaw.UPF
ATOMIC_POSITIONS {crystal}
Ag               0.2222220000        0.1111110000        0.2000000000    0   0   0
Ag               0.5555560000        0.1111110000        0.2000000000    0   0   0
Ag               0.8888890000        0.1111110000        0.2000000000    0   0   0
Ag               0.2222220000        0.4444440000        0.2000000000    0   0   0
Ag               0.5555560000        0.4444440000        0.2000000000    0   0   0
Ag               0.8888890000        0.4444440000        0.2000000000    0   0   0
Ag               0.2222220000        0.7777780000        0.2000000000    0   0   0
Ag               0.5555560000        0.7777780000        0.2000000000    0   0   0
Ag               0.8888890000        0.7777780000        0.2000000000    0   0   0
Ag               0.1111110000        0.2222220000        0.2500000000    0   0   0
Ag               0.4444440000        0.2222220000        0.2500000000    0   0   0
Ag               0.7777780000        0.2222220000        0.2500000000    0   0   0
Ag               0.1111110000        0.5555560000        0.2500000000    0   0   0
Ag               0.4444440000        0.5555560000        0.2500000000    0   0   0
Ag               0.7777780000        0.5555560000        0.2500000000    0   0   0
Ag               0.1111110000        0.8888890000        0.2500000000    0   0   0
Ag               0.4444440000        0.8888890000        0.2500000000    0   0   0
Ag               0.7777780000        0.8888890000        0.2500000000    0   0   0
Ag               0.0000032176        0.0000065409        0.3440314942
Ag               0.3333371280        0.0000073180        0.3440316519
Ag               0.6666694061        0.0000059188        0.3440312252
Ag               0.0000047212        0.3333416973        0.3440313831
Ag               0.3333434906        0.3333465676        0.3440405900
Ag               0.6666689618        0.3333440647        0.3440359453
Ag               0.0000020887        0.6666727044        0.3440319375
Ag               0.3333378668        0.6666718249        0.3440337752
Ag               0.6666644083        0.6666665508        0.3440423141
H                0.4900131459        0.5000005885        0.5440029949
H                0.5749869001        0.4999999295        0.5440029385
K_POINTS {automatic}
   2 2 1 0 0 0
