#===============================================================================
# Created using the Atomic Simulation Environment (ASE)

# Fri Dec 13 13:42:32 2024

#=======================================================
lattice_vector 11.5549733299999993 0.0000000000000000 0.0000000000000000 
lattice_vector 0.0000000000000000 10.0069004400000008 0.0000000000000000 
lattice_vector 0.0000000000000000 0.0000000000000000 65.0000000000000000 
atom 1.6567768700000001 4.4689434700000001 9.5264986900000004 H
atom 1.7275404000000001 4.5581219199999996 10.2724058500000002 H
atom 3.7373628999999999 0.6502149400000000 9.5881846799999995 H
atom 3.5875217799999999 0.4964133900000000 10.3111128900000004 H
atom 4.7070023799999996 5.3056002299999996 9.5856866000000025 H
    constrain_relaxation .true.
atom 4.8878247799999999 5.3377180700000002 10.3171715600000020 H
    constrain_relaxation .true.
atom 6.7309747399999997 1.2567568200000001 10.3022864199999997 H
atom 6.7804857600000004 1.2409055499999999 9.5494562100000007 H
atom 10.1271891400000005 3.8665225599999999 9.5274296300000003 H
atom 10.1812972199999994 3.8011301300000002 10.2771910900000005 H
atom 7.9792135300000000 6.0269431800000000 10.2917873100000001 H
atom 7.8691728200000002 6.0324657000000004 9.5456013599999991 H
atom 8.9164921800000005 8.9138406799999998 9.5733232000000008 H
atom 8.8304277800000008 9.0452294500000008 10.3109716400000000 H
atom 12.2336488299999999 11.5401500899999991 10.2937271199999998 H
atom 12.1768815299999993 11.4596853099999993 9.5454853499999999 H
atom -0.5276440900000000 6.7844253500000002 10.2767645099999996 H
atom -0.3858833600000000 6.7700895900000004 9.5359906599999995 H
atom 2.6951997799999998 7.6252877300000002 9.5479620000000001 H
atom 2.5994458400000000 7.5488816600000002 10.2923175300000000 H
atom 5.7632230099999999 8.2790931600000004 10.2307728600000001 H
atom 5.7703623700000000 8.2905007600000005 9.4762552099999997 H
atom 0.0000000000000000 0.0000000000000000 0.0000000000000000 Ag
    constrain_relaxation .true.
atom 2.8887399999999999 0.0000000000000000 0.0000000000000000 Ag
    constrain_relaxation .true.
atom 5.7774999999999999 0.0000000000000000 0.0000000000000000 Ag
    constrain_relaxation .true.
atom 8.6662300000000005 0.0000000000000000 0.0000000000000000 Ag
    constrain_relaxation .true.
atom 1.4443699999999999 2.5017299999999998 0.0000000000000000 Ag
    constrain_relaxation .true.
atom 4.3331099999999996 2.5017299999999998 0.0000000000000000 Ag
    constrain_relaxation .true.
atom 7.2218400000000003 2.5017299999999998 0.0000000000000000 Ag
    constrain_relaxation .true.
atom 10.1105999999999998 2.5017299999999998 0.0000000000000000 Ag
    constrain_relaxation .true.
atom 0.0000000000000000 5.0034500000000000 0.0000000000000000 Ag
    constrain_relaxation .true.
atom 2.8887399999999999 5.0034500000000000 0.0000000000000000 Ag
    constrain_relaxation .true.
atom 5.7774999999999999 5.0034500000000000 0.0000000000000000 Ag
    constrain_relaxation .true.
atom 8.6662300000000005 5.0034500000000000 0.0000000000000000 Ag
    constrain_relaxation .true.
atom 1.4443699999999999 7.5051600000000001 0.0000000000000000 Ag
    constrain_relaxation .true.
atom 4.3331099999999996 7.5051600000000001 0.0000000000000000 Ag
    constrain_relaxation .true.
atom 7.2218400000000003 7.5051600000000001 0.0000000000000000 Ag
    constrain_relaxation .true.
atom 10.1105999999999998 7.5051600000000001 0.0000000000000000 Ag
    constrain_relaxation .true.
atom 1.4443699999999999 0.8339090000000000 2.3586499999999999 Ag
    constrain_relaxation .true.
atom 4.3331099999999996 0.8339090000000000 2.3586499999999999 Ag
    constrain_relaxation .true.
atom 7.2218400000000003 0.8339090000000000 2.3586499999999999 Ag
    constrain_relaxation .true.
atom 10.1105999999999998 0.8339090000000000 2.3586499999999999 Ag
    constrain_relaxation .true.
atom 0.0000000000000000 3.3356300000000001 2.3586499999999999 Ag
    constrain_relaxation .true.
atom 2.8887399999999999 3.3356300000000001 2.3586499999999999 Ag
    constrain_relaxation .true.
atom 5.7774999999999999 3.3356300000000001 2.3586499999999999 Ag
    constrain_relaxation .true.
atom 8.6662300000000005 3.3356300000000001 2.3586499999999999 Ag
    constrain_relaxation .true.
atom 1.4443699999999999 5.8373499999999998 2.3586499999999999 Ag
    constrain_relaxation .true.
atom 4.3331099999999996 5.8373499999999998 2.3586499999999999 Ag
    constrain_relaxation .true.
atom 7.2218400000000003 5.8373499999999998 2.3586499999999999 Ag
    constrain_relaxation .true.
atom 10.1105999999999998 5.8373499999999998 2.3586499999999999 Ag
    constrain_relaxation .true.
atom 0.0000000000000000 8.3390900000000006 2.3586499999999999 Ag
    constrain_relaxation .true.
atom 2.8887399999999999 8.3390900000000006 2.3586499999999999 Ag
    constrain_relaxation .true.
atom 5.7774999999999999 8.3390900000000006 2.3586499999999999 Ag
    constrain_relaxation .true.
atom 8.6662300000000005 8.3390900000000006 2.3586499999999999 Ag
    constrain_relaxation .true.
atom 0.0005847700000000 1.6857400000000000 4.6409099999999999 Ag
    constrain_relaxation .true.
atom 2.8889499999999999 1.6849099999999999 4.6407999999999996 Ag
    constrain_relaxation .true.
atom 5.7770799999999998 1.6842500000000000 4.6409000000000002 Ag
    constrain_relaxation .true.
atom 8.6655899999999999 1.6847900000000000 4.6408800000000001 Ag
    constrain_relaxation .true.
atom 1.4443200000000000 4.1872900000000000 4.6406200000000002 Ag
    constrain_relaxation .true.
atom 4.3330200000000003 4.1858399999999998 4.6412899999999997 Ag
    constrain_relaxation .true.
atom 7.2205700000000004 4.1865600000000001 4.6413700000000002 Ag
    constrain_relaxation .true.
atom 10.1098999999999997 4.1865199999999998 4.6406200000000002 Ag
    constrain_relaxation .true.
atom 0.0002352200000000 6.6888500000000004 4.6402299999999999 Ag
    constrain_relaxation .true.
atom 2.8893300000000002 6.6880100000000002 4.6412899999999997 Ag
    constrain_relaxation .true.
atom 5.7768199999999998 6.6876899999999999 4.6413900000000003 Ag
    constrain_relaxation .true.
atom 8.6657499999999992 6.6884300000000003 4.6405599999999998 Ag
    constrain_relaxation .true.
atom 1.4454100000000001 9.1901700000000002 4.6409300000000000 Ag
    constrain_relaxation .true.
atom 4.3335600000000003 9.1898499999999999 4.6409399999999996 Ag
    constrain_relaxation .true.
atom 7.2216800000000001 9.1895299999999995 4.6409200000000004 Ag
    constrain_relaxation .true.
atom 10.1109000000000009 9.1905400000000004 4.6400600000000001 Ag
    constrain_relaxation .true.
atom 0.0001918800000000 0.0175985000000000 6.9315159900000003 Ag
atom 2.8892169499999998 0.0166573800000000 6.9315484300000003 Ag
atom 5.7775779099999998 0.0158966000000000 6.9321164499999997 Ag
atom 8.6668007599999992 0.0163110200000000 6.9317781700000003 Ag
atom 1.4440513300000000 2.5190238500000000 6.9314390799999996 Ag
atom 4.3326656999999997 2.5171225399999999 6.9320650199999996 Ag
atom 7.2213928999999997 2.5172512500000002 6.9325679200000003 Ag
atom 10.1097949099999997 2.5189817600000000 6.9313795400000000 Ag
atom -0.0003290800000000 5.0207087399999999 6.9313242199999996 Ag
atom 2.8889209100000000 5.0195088400000003 6.9322939999999997 Ag
atom 5.7767576500000004 5.0192869399999998 6.9330241499999996 Ag
atom 8.6652111299999994 5.0200934799999999 6.9317124699999999 Ag
atom 1.4442290099999999 7.5222805399999997 6.9316569499999998 Ag
atom 4.3329506400000000 7.5215356699999996 6.9323331300000000 Ag
atom 7.2219414899999999 7.5213540500000002 6.9318110800000001 Ag
atom 10.1109458799999992 7.5225163500000001 6.9312607899999996 Ag
