# 
# This is the geometry file that corresponds to the current relaxation step.
# If you do not want this file to be written, set the "write_restart_geometry" flag to .false.
#  aims_uuid : E475EE5C-D51E-4F67-AA6D-3BBEC83FE841                                
# 
  set_vacuum_level        44.182050
lattice_vector     11.55497333      0.00000000      0.00000000
lattice_vector      0.00000000     10.00690044      0.00000000
lattice_vector      0.00000000      0.00000000     65.00000000
atom       5.07571093      4.82441374      9.67648964 H 
atom       5.35573088      4.97685227     10.35942799 H 
atom       0.00000000      0.00000000      0.00000000 Ag
  constrain_relaxation .true.
atom       2.88874000      0.00000000      0.00000000 Ag
  constrain_relaxation .true.
atom       5.77750000      0.00000000      0.00000000 Ag
  constrain_relaxation .true.
atom       8.66623000      0.00000000      0.00000000 Ag
  constrain_relaxation .true.
atom       1.44437000      2.50173000      0.00000000 Ag
  constrain_relaxation .true.
atom       4.33311000      2.50173000      0.00000000 Ag
  constrain_relaxation .true.
atom       7.22184000      2.50173000      0.00000000 Ag
  constrain_relaxation .true.
atom      10.11060000      2.50173000      0.00000000 Ag
  constrain_relaxation .true.
atom       0.00000000      5.00345000      0.00000000 Ag
  constrain_relaxation .true.
atom       2.88874000      5.00345000      0.00000000 Ag
  constrain_relaxation .true.
atom       5.77750000      5.00345000      0.00000000 Ag
  constrain_relaxation .true.
atom       8.66623000      5.00345000      0.00000000 Ag
  constrain_relaxation .true.
atom       1.44437000      7.50516000      0.00000000 Ag
  constrain_relaxation .true.
atom       4.33311000      7.50516000      0.00000000 Ag
  constrain_relaxation .true.
atom       7.22184000      7.50516000      0.00000000 Ag
  constrain_relaxation .true.
atom      10.11060000      7.50516000      0.00000000 Ag
  constrain_relaxation .true.
atom       1.44437000      0.83390900      2.35865000 Ag
  constrain_relaxation .true.
atom       4.33311000      0.83390900      2.35865000 Ag
  constrain_relaxation .true.
atom       7.22184000      0.83390900      2.35865000 Ag
  constrain_relaxation .true.
atom      10.11060000      0.83390900      2.35865000 Ag
  constrain_relaxation .true.
atom       0.00000000      3.33563000      2.35865000 Ag
  constrain_relaxation .true.
atom       2.88874000      3.33563000      2.35865000 Ag
  constrain_relaxation .true.
atom       5.77750000      3.33563000      2.35865000 Ag
  constrain_relaxation .true.
atom       8.66623000      3.33563000      2.35865000 Ag
  constrain_relaxation .true.
atom       1.44437000      5.83735000      2.35865000 Ag
  constrain_relaxation .true.
atom       4.33311000      5.83735000      2.35865000 Ag
  constrain_relaxation .true.
atom       7.22184000      5.83735000      2.35865000 Ag
  constrain_relaxation .true.
atom      10.11060000      5.83735000      2.35865000 Ag
  constrain_relaxation .true.
atom       0.00000000      8.33909000      2.35865000 Ag
  constrain_relaxation .true.
atom       2.88874000      8.33909000      2.35865000 Ag
  constrain_relaxation .true.
atom       5.77750000      8.33909000      2.35865000 Ag
  constrain_relaxation .true.
atom       8.66623000      8.33909000      2.35865000 Ag
  constrain_relaxation .true.
atom       0.00058477      1.68574000      4.64091000 Ag
  constrain_relaxation .true.
atom       2.88895000      1.68491000      4.64080000 Ag
  constrain_relaxation .true.
atom       5.77708000      1.68425000      4.64090000 Ag
  constrain_relaxation .true.
atom       8.66559000      1.68479000      4.64088000 Ag
  constrain_relaxation .true.
atom       1.44432000      4.18729000      4.64062000 Ag
  constrain_relaxation .true.
atom       4.33302000      4.18584000      4.64129000 Ag
  constrain_relaxation .true.
atom       7.22057000      4.18656000      4.64137000 Ag
  constrain_relaxation .true.
atom      10.10990000      4.18652000      4.64062000 Ag
  constrain_relaxation .true.
atom       0.00023522      6.68885000      4.64023000 Ag
  constrain_relaxation .true.
atom       2.88933000      6.68801000      4.64129000 Ag
  constrain_relaxation .true.
atom       5.77682000      6.68769000      4.64139000 Ag
  constrain_relaxation .true.
atom       8.66575000      6.68843000      4.64056000 Ag
  constrain_relaxation .true.
atom       1.44541000      9.19017000      4.64093000 Ag
  constrain_relaxation .true.
atom       4.33356000      9.18985000      4.64094000 Ag
  constrain_relaxation .true.
atom       7.22168000      9.18953000      4.64092000 Ag
  constrain_relaxation .true.
atom      10.11090000      9.19054000      4.64006000 Ag
  constrain_relaxation .true.
atom       0.00091367      0.01686121      6.93147549 Ag
atom       2.88913173      0.01700867      6.93243339 Ag
atom       5.77707638      0.01602560      6.93297293 Ag
atom       8.66686014      0.01593210      6.93189743 Ag
atom       1.44465246      2.51896401      6.93244089 Ag
atom       4.33310404      2.51779916      6.93236549 Ag
atom       7.22181915      2.51671814      6.93245536 Ag
atom      10.11007439      2.51861108      6.93170669 Ag
atom      -0.00043009      5.02004942      6.93097367 Ag
atom       2.88891841      5.01936315      6.93244104 Ag
atom       5.77698547      5.01908167      6.93371169 Ag
atom       8.66551151      5.02023062      6.93213671 Ag
atom       1.44453750      7.52133295      6.93176677 Ag
atom       4.33367416      7.52141285      6.93279546 Ag
atom       7.22146000      7.52127441      6.93167595 Ag
atom      10.11050930      7.52212061      6.93154372 Ag
atom       7.22840000      4.14508000     16.32980000 Ag
  constrain_relaxation .true.
atom       5.76311000      6.68372000     16.32890000 Ag
  constrain_relaxation .true.
atom       4.29779000      4.14508000     16.32980000 Ag
  constrain_relaxation .true.
atom       5.76311000      3.20277000     18.55840000 Ag
  constrain_relaxation .true.
atom       8.65861000      3.31994000     18.56960000 Ag
  constrain_relaxation .true.
atom       7.31339000      5.88715000     18.55790000 Ag
  constrain_relaxation .true.
atom       4.21286000      5.88715000     18.55790000 Ag
  constrain_relaxation .true.
atom       5.76311000      8.33507000     18.56880000 Ag
  constrain_relaxation .true.
atom       2.86762000      3.31993000     18.56960000 Ag
  constrain_relaxation .true.
atom       7.23131000      2.44940000     20.86410000 Ag
  constrain_relaxation .true.
atom       5.76311000      4.99234000     20.86410000 Ag
  constrain_relaxation .true.
atom       4.29495000      2.44940000     20.86410000 Ag
  constrain_relaxation .true.
atom       8.69946000      4.99234000     20.86410000 Ag
  constrain_relaxation .true.
atom      10.16760000      2.44940000     20.86410000 Ag
  constrain_relaxation .true.
atom       7.23131000      7.53527000     20.86410000 Ag
  constrain_relaxation .true.
atom       4.29495000      7.53527000     20.86410000 Ag
  constrain_relaxation .true.
atom       2.82679000      4.99234000     20.86410000 Ag
  constrain_relaxation .true.
atom       5.76311000     10.07820000     20.86410000 Ag
  constrain_relaxation .true.
atom       1.43349000      2.62685000     20.80440000 Ag
  constrain_relaxation .true.
# 
# What follows is the current estimated Hessian matrix constructed by the BFGS algorithm.
# This is NOT the true Hessian matrix of the system.
# If you do not want this information here, switch it off using the "hessian_to_restart_geometry" keyword.
# 
