&inputpp
    prefix = 'Ag'
    outdir = './'
    filplot = 'Ag_temp.dat'
    plot_num = 0
/
&plot
    nfile = 1
    filepp(1) = 'Ag_temp.dat'
    weight(1) = 1.0
    iflag = 3
    output_format = 6
    fileout = 'rho_Ag.cube'
/
