&inputpp
    prefix = 'H2'
    outdir = './'
    filplot = 'H2_temp.dat'
    plot_num = 0
/
&plot
    nfile = 1
    filepp(1) = 'H2_temp.dat'
    weight(1) = 1.0
    iflag = 3
    output_format = 6
    fileout = 'rho_H2.cube'
/
