&inputpp
    prefix = 'total'
    outdir = './'
    filplot = 'total_temp.dat'
    plot_num = 0
/
&plot
    nfile = 1
    filepp(1) = 'total_temp.dat'
    weight(1) = 1.0
    iflag = 3
    output_format = 6
    fileout = 'rho_total.cube'
/
