&CONTROL
   calculation  = 'scf',
   prefix       = 'total',
   pseudo_dir   = './',
   outdir       = './'
/
&SYSTEM
   ibrav     = 0,
   nat       = 29,
   ntyp      = 2,
   ecutwfc   = 40.0,
   ecutrho   = 200.0,
   occupations = 'smearing',
   smearing    = 'methfessel-paxton',
   degauss     = 0.02,
   vdw_corr    = 'dft-d3'
/
&ELECTRONS
   conv_thr    = 1.0d-8,
   mixing_beta = 0.1,
/
&IONS
   ion_dynamics = 'bfgs'
/
CELL_PARAMETERS {angstrom}
   8.850   0.000   0.000
  -4.425   7.665   0.000
   0.000   0.000  25.000
ATOMIC_SPECIES
   Ag  107.868  Ag.pbe-n-rrkjus_psl.1.0.0.UPF
   H    1.008  H.pbe-kjpaw.UPF
ATOMIC_POSITIONS {crystal}
Ag               0.2222220000        0.1111110000        0.2000000000    0   0   0
Ag               0.5555560000        0.1111110000        0.2000000000    0   0   0
Ag               0.8888890000        0.1111110000        0.2000000000    0   0   0
Ag               0.2222220000        0.4444440000        0.2000000000    0   0   0
Ag               0.5555560000        0.4444440000        0.2000000000    0   0   0
Ag               0.8888890000        0.4444440000        0.2000000000    0   0   0
Ag               0.2222220000        0.7777780000        0.2000000000    0   0   0
Ag               0.5555560000        0.7777780000        0.2000000000    0   0   0
Ag               0.8888890000        0.7777780000        0.2000000000    0   0   0
Ag               0.1111110000        0.2222220000        0.2500000000    0   0   0
Ag               0.4444440000        0.2222220000        0.2500000000    0   0   0
Ag               0.7777780000        0.2222220000        0.2500000000    0   0   0
Ag               0.1111110000        0.5555560000        0.2500000000    0   0   0
Ag               0.4444440000        0.5555560000        0.2500000000    0   0   0
Ag               0.7777780000        0.5555560000        0.2500000000    0   0   0
Ag               0.1111110000        0.8888890000        0.2500000000    0   0   0
Ag               0.4444440000        0.8888890000        0.2500000000    0   0   0
Ag               0.7777780000        0.8888890000        0.2500000000    0   0   0
Ag               0.0000027002        0.0000064833        0.3440298365
Ag               0.3333371190        0.0000078635        0.3440290457
Ag               0.6666698076        0.0000049672        0.3440295758
Ag               0.0000044764        0.3333391762        0.3440301638
Ag               0.3333401626        0.3333434905        0.3440356469
Ag               0.6666667030        0.3333432541        0.3440334332
Ag               0.0000026906        0.6666745733        0.3440294705
Ag               0.3333405705        0.6666715407        0.3440332610
Ag               0.6666666047        0.6666710216        0.3440354776
H                0.4999999746        0.5000000196        0.4699025478
H                0.5000001794        0.4999998171        0.5000515942
K_POINTS {automatic}
   2 2 1 0 0 0
