&CONTROL
   calculation  = 'relax',
   prefix       = 'ag111_3x3_h2_2A',
   pseudo_dir   = './',
   outdir       = './'
/
&SYSTEM
   ibrav     = 0,
   nat       = 29,
   ntyp      = 2,
   ecutwfc   = 40.0,
   ecutrho   = 200.0,
   occupations = 'smearing',
   smearing    = 'methfessel-paxton',
   degauss     = 0.02,
   vdw_corr    = 'dft-d3'
/
&ELECTRONS
   conv_thr    = 1.0d-7,
   mixing_beta = 0.3
/
&IONS
   ion_dynamics = 'bfgs'
/
CELL_PARAMETERS {angstrom}
   8.850   0.000   0.000
  -4.425   7.665   0.000
   0.000   0.000  25.000
ATOMIC_SPECIES
   Ag  107.868  Ag.pbe-n-rrkjus_psl.1.0.0.UPF
   H    1.008  H.pbe-kjpaw.UPF
ATOMIC_POSITIONS {crystal}
Ag     0.0000112   0.0000225   0.4044300   0 0 0
Ag     0.3333489   0.0000252   0.4044302   0 0 0
Ag     0.6666764   0.0000252   0.4044302   0 0 0
Ag    -0.0000057   0.3333301   0.4044305   0 0 0
Ag     0.3333358   0.3333301   0.4044305   0 0 0
Ag     0.6666662   0.3333313   0.4044310   0 0 0
Ag    -0.0000014   0.6666661   0.4044289   0 0 0
Ag     0.3333355   0.6666720   0.4044284   0 0 0
Ag     0.6666675   0.6666661   0.4044289   0 0 0
Ag     0.1111110   0.2222220   0.5000000   0 0 0
Ag     0.4444440   0.2222220   0.5000000   0 0 0
Ag     0.7777780   0.2222220   0.5000000   0 0 0
Ag     0.1111110   0.5555560   0.5000000   0 0 0
Ag     0.4444440   0.5555560   0.5000000   0 0 0
Ag     0.7777780   0.5555560   0.5000000   0 0 0
Ag     0.1111110   0.8888890   0.5000000   0 0 0
Ag     0.4444440   0.8888890   0.5000000   0 0 0
Ag     0.7777780   0.8888890   0.5000000   0 0 0
Ag     0.2222220   0.1111110   0.5500000   0 0 0
Ag     0.5555560   0.1111110   0.5500000   0 0 0
Ag     0.8888890   0.1111110   0.5500000   0 0 0
Ag     0.2222220   0.4444440   0.5500000   0 0 0
Ag     0.5555560   0.4444440   0.5500000   0 0 0
Ag     0.8888890   0.4444440   0.5500000   0 0 0
Ag     0.2222220   0.7777780   0.5500000   0 0 0
Ag     0.5555560   0.7777780   0.5500000   0 0 0
Ag     0.8888890   0.7777780   0.5500000   0 0 0
H      0.4800000   0.4800000   0.325938   1 1 0
H      0.5200000   0.5200000   0.325938   1 1 0
K_POINTS {automatic}
   2 2 1 0 0 0