&CONTROL
   calculation  = 'relax',
   prefix       = 'ag111_3x3_h2_5A',
   pseudo_dir   = './',
   outdir       = './'
/
&SYSTEM
   ibrav     = 0,
   nat       = 29,
   ntyp      = 2,
   ecutwfc   = 40.0,
   ecutrho   = 200.0,
   occupations = 'smearing',
   smearing    = 'methfessel-paxton',
   degauss     = 0.02,
   vdw_corr    = 'dft-d3'
/
&ELECTRONS
   conv_thr    = 1.0d-7,
   mixing_beta = 0.3
/
&IONS
   ion_dynamics = 'bfgs'
/
CELL_PARAMETERS {angstrom}
   8.850   0.000   0.000
  -4.425   7.665   0.000
   0.000   0.000  25.000
ATOMIC_SPECIES
   Ag  107.868  Ag.pbe-n-rrkjus_psl.1.0.0.UPF
   H    1.008  H.pbe-kjpaw.UPF
ATOMIC_POSITIONS {crystal}
Ag     0.0000112   0.0000225   0.4059380   0 0 0
Ag     0.3332139   0.0000807   0.4059539   0 0 0
Ag     0.6666977   0.0000178   0.4059676   0 0 0
Ag     0.0000043   0.3333290   0.4059674   0 0 0
Ag     0.3326958   0.3328170   0.4060442   0 0 0
Ag     0.6668081   0.3332218   0.4059929   0 0 0
Ag    -0.0000616   0.6668103   0.4059543   0 0 0
Ag     0.3330659   0.6669606   0.4059687   0 0 0
Ag     0.6672116   0.6673321   0.4060450   0 0 0
Ag     0.1111110   0.2222220   0.5000000   0 0 0
Ag     0.4444440   0.2222220   0.5000000   0 0 0
Ag     0.7777780   0.2222220   0.5000000   0 0 0
Ag     0.1111110   0.5555560   0.5000000   0 0 0
Ag     0.4444440   0.5555560   0.5000000   0 0 0
Ag     0.7777780   0.5555560   0.5000000   0 0 0
Ag     0.1111110   0.8888890   0.5000000   0 0 0
Ag     0.4444440   0.8888890   0.5000000   0 0 0
Ag     0.7777780   0.8888890   0.5000000   0 0 0
Ag     0.2222220   0.1111110   0.5500000   0 0 0
Ag     0.5555560   0.1111110   0.5500000   0 0 0
Ag     0.8888890   0.1111110   0.5500000   0 0 0
Ag     0.2222220   0.4444440   0.5500000   0 0 0
Ag     0.5555560   0.4444440   0.5500000   0 0 0
Ag     0.8888890   0.4444440   0.5500000   0 0 0
Ag     0.2222220   0.7777780   0.5500000   0 0 0
Ag     0.5555560   0.7777780   0.5500000   0 0 0
Ag     0.8888890   0.7777780   0.5500000   0 0 0
H      0.4800000   0.4800000   0.2059380   1 1 0
H      0.5200000   0.5200000   0.2059380   1 1 0
K_POINTS {automatic}
   2 2 1 0 0 0
