&CONTROL
   calculation  = 'relax',
   prefix       = 'ag_h2_axe',
   pseudo_dir   = './',
   outdir       = './'
/
&SYSTEM
   ibrav     = 0,
   nat       = 29,
   ntyp      = 2,
   ecutwfc   = 40.0,
   ecutrho   = 200.0,
   occupations = 'smearing',
   smearing    = 'methfessel-paxton',
   degauss     = 0.02,
   vdw_corr    = 'dft-d3'
/
&ELECTRONS
   conv_thr    = 1.0d-7,
   mixing_beta = 0.3
/
&IONS
   ion_dynamics = 'bfgs'
/
CELL_PARAMETERS {angstrom}
   8.850   0.000   0.000
  -4.425   7.665   0.000
   0.000   0.000  25.000
ATOMIC_SPECIES
   Ag  107.868  Ag.pbe-n-rrkjus_psl.1.0.0.UPF
   H    1.008  H.pbe-kjpaw.UPF
ATOMIC_POSITIONS {crystal}
Ag   0.222222   0.111111   0.200   0 0 0
Ag   0.555556   0.111111   0.200   0 0 0
Ag   0.888889   0.111111   0.200   0 0 0
Ag   0.222222   0.444444   0.200   0 0 0
Ag   0.555556   0.444444   0.200   0 0 0
Ag   0.888889   0.444444   0.200   0 0 0
Ag   0.222222   0.777778   0.200   0 0 0
Ag   0.555556   0.777778   0.200   0 0 0
Ag   0.888889   0.777778   0.200   0 0 0
Ag   0.111111   0.222222   0.250   0 0 0
Ag   0.444444   0.222222   0.250   0 0 0
Ag   0.777778   0.222222   0.250   0 0 0
Ag   0.111111   0.555556   0.250   0 0 0
Ag   0.444444   0.555556   0.250   0 0 0
Ag   0.777778   0.555556   0.250   0 0 0
Ag   0.111111   0.888889   0.250   0 0 0
Ag   0.444444   0.888889   0.250   0 0 0
Ag   0.777778   0.888889   0.250   0 0 0
Ag   0.000000   0.000000   0.300   1 1 1
Ag   0.333333   0.000000   0.300   1 1 1
Ag   0.666667   0.000000   0.300   1 1 1
Ag   0.000000   0.333333   0.300   1 1 1
Ag   0.333333   0.333333   0.300   1 1 1
Ag   0.666667   0.333333   0.300   1 1 1
Ag   0.000000   0.666667   0.300   1 1 1
Ag   0.333333   0.666667   0.300   1 1 1
Ag   0.666667   0.666667   0.300   1 1 1
H    0.500000   0.500000   0.420   1 1 1
H    0.500000   0.500000   0.450   1 1 1
K_POINTS {automatic}
   2 2 1 0 0 0
