&CONTROL
   calculation  = 'relax',
   prefix       = 'h2',
   pseudo_dir   = './',
   outdir       = './'
/
&SYSTEM
   ibrav     = 1,
   celldm(1) = 20.0,
   nat       = 2,
   ntyp      = 1,
   ecutwfc   = 40.0,
   ecutrho   = 200.0,
/
&ELECTRONS
   conv_thr    = 1.0d-8,
   mixing_beta = 0.7
/
&IONS
   ion_dynamics = 'bfgs'
/
ATOMIC_SPECIES
  H  1.008  H.pbe-kjpaw.UPF  ! <--- 请确保这里是您H伪势的正确文件名
ATOMIC_POSITIONS {angstrom}
  H   0.000   0.000   0.000
  H   0.000   0.000   0.740
K_POINTS {gamma}
